(declare-const term_to_project_onto1 Real)
(declare-const term_to_project_onto0 Real)
(declare-const x Int)
(declare-const term_to_project_onto2 Real)
(declare-const term_to_project_onto4 Real)
(declare-const term_to_project_onto3 Real)
(declare-const term_to_project_onto Real)
(declare-const y Int)
(assert (exists
         ((|mem_22@width'?1| Int) (|mem_22@pos'?2| Int) (|mem_22'?3| Int)
            (|j'?4| Int) (tr?5 Int) (tr?6 Int) (tr?7 Int) (tr?8 Int)
            (tr?9 Int) (tr?10 Int) (phi_mem_22@width?11 Int)
            (phi_mem_22@pos?12 Int) (phi_mem_22?13 Int) (tr?14 Int)
            (tr?15 Int) (tr?16 Int) (|y'?17| Int) (|x'?18| Int)
            (mem_22?19 Int) (mem_22@pos?20 Int) (mem_22@width?21 Int)
            (j?22 Int) (edgecount?23 Int))
         (and (<= (- j?22) 0) (<= (- edgecount?23) 0)
                (<= (+ (- edgecount?23) j?22 1) 0)
                (or (and (<= (+ (- tr?14) (- tr?15) tr?16) 0)
                           (= (+ (- phi_mem_22?13) mem_22?19) 0)
                           (= (+ (- phi_mem_22@pos?12) mem_22@pos?20) 0)
                           (= (+ (- phi_mem_22@width?11) mem_22@width?21) 0))
                      (and (<= (+ (- tr?8) tr?9 tr?10 1) 0)
                             (= (+ (* 4 tr?6) tr?7 (- phi_mem_22?13)) 0)
                             (= (+ (* 4 tr?6) (- phi_mem_22@pos?12)) 0)
                             (= (+ (- phi_mem_22@width?11) 1) 0)))
                (= (+ |mem_22@width'?1| (- phi_mem_22@width?11)) 0)
                (= (+ |mem_22@pos'?2| (- phi_mem_22@pos?12)) 0)
                (= (+ |mem_22'?3| (- phi_mem_22?13)) 0)
                (= (+ |j'?4| (- j?22) -1) 0) (= (+ (- tr?5) |y'?17|) 0)
                (= (+ |x'?18| (- tr?6)) 0)
                (= term_to_project_onto4 (+ |x'?18| (- x)))
                (= term_to_project_onto3 (+ |y'?17| (- y)))
                (= term_to_project_onto2 (+ |j'?4| (- j?22)))
                (= term_to_project_onto1 (+ |mem_22'?3| (- mem_22?19)))
                (= term_to_project_onto0 (+ |mem_22@pos'?2| (- mem_22@pos?20)))
                (= term_to_project_onto (+ |mem_22@width'?1|
                                             (- mem_22@width?21))))))
(check-sat)
